data;
param T := 14250;
param N := 22;
param W := 
[0] 2061
[1] 2763
[2] 4227
[3] 8310
[4] 3170
[5] 9492
[6] 1414
[7] 953
[8] 1874
[9] 3381
[10] 9706
[11] 5065
[12] 2938
[13] 475
[14] 9974
[15] 625
[16] 7587
[17] 5123
[18] 4479
[19] 872
[20] 7578
[21] 709
;
end;